============================[ Problem Statistics ]=============================|                                                                             ||  Number of variables:          4242                                         ||  Number of clauses:            9784                                         ||  Parse time:                   0.19 s                                       ||                                                                             |============================[ Search Statistics ]==============================| Conflicts |          ORIGINAL         |          LEARNT          | Progress ||           |    Vars  Clauses Literals |    Limit  Clauses Lit/Cl |          |===============================================================================|       100 |    1591     5989   275900 |     2195      100     53 | 62.501 % |===============================================================================restarts              : 2conflicts             : 110            (344 /sec)decisions             : 282            (0.00 % random) (881 /sec)propagations          : 9871           (30847 /sec)conflict literals     : 6155           (95.84 % deleted)CPU time              : 0.32 sSATISFIABLE